
Log started (V11.0.0) Thu May 15 00:49:15 2008

Tried aggregator 1 time.
Reduced MIP has 150 rows, 5001 columns, and 10050 nonzeros.
Presolve time =    0.05 sec.
Clique table members: 100.
MIP emphasis: balance optimality and feasibility.
MIP search method: dynamic search.
Parallel mode: none, using 1 thread.
Root relaxation solution time =    0.23 sec.

        Nodes                                         Cuts/
   Node  Left     Objective  IInf  Best Integer     Best Node    ItCnt     Gap

*     0+    0                        11078.0000      200.3591      522   98.19%
*     0+    0                          202.0000      200.3591      522    0.81%
      0     0      201.0000    61      202.0000      Fract: 5      536    0.50%
      0     0      201.0000    67      202.0000       Cuts: 7      555    0.50%
      0     0      201.0000    69      202.0000      Cuts: 11      594    0.50%
      0     2      201.0000    69      202.0000      201.0000      594    0.50%
    100     4      201.0000    61      202.0000      201.0000    36284    0.50%
    200    26      201.0000    45      202.0000      201.0000    79206    0.50%
    300    38      201.0000    69      202.0000      201.0000   105329    0.50%
    400    48    infeasible            202.0000      201.0000   112216    0.50%
    500    72    infeasible            202.0000      201.0000   123157    0.50%

Clique cuts applied:  3
Cover cuts applied:  2
Implied bound cuts applied:  6
Flow cuts applied:  3
Gomory fractional cuts applied:  1

Solution pool: 2 solutions saved.

MIP - Integer optimal solution:  Objective = 2.0200000000e+002
Solution time =   22.27 sec.  Iterations = 127206  Nodes = 531


Incumbent solution
Variable Name           Solution Value
Cmax                        202.000000
X_1_35                        1.000000
X_2_10                        1.000000
X_3_40                        1.000000
X_4_43                        1.000000
X_5_47                        1.000000
X_6_18                        1.000000
X_7_5                         1.000000
X_8_38                        1.000000
X_9_20                        1.000000
X_10_45                       1.000000
X_11_6                        1.000000
X_12_17                       1.000000
X_13_23                       1.000000
X_14_42                       1.000000
X_15_14                       1.000000
X_16_7                        1.000000
X_17_21                       1.000000
X_18_37                       1.000000
X_19_43                       1.000000
X_20_26                       1.000000
X_21_31                       1.000000
X_22_5                        1.000000
X_23_15                       1.000000
X_24_41                       1.000000
X_25_26                       1.000000
X_26_45                       1.000000
X_27_22                       1.000000
X_28_42                       1.000000
X_29_11                       1.000000
X_30_21                       1.000000
X_31_24                       1.000000
X_32_9                        1.000000
X_33_46                       1.000000
X_34_38                       1.000000
X_35_24                       1.000000
X_36_40                       1.000000
X_37_13                       1.000000
X_38_31                       1.000000
X_39_2                        1.000000
X_40_39                       1.000000
X_41_49                       1.000000
X_42_3                        1.000000
X_43_35                       1.000000
X_44_47                       1.000000
X_45_30                       1.000000
X_46_18                       1.000000
X_47_27                       1.000000
X_48_33                       1.000000
X_49_17                       1.000000
X_50_46                       1.000000
X_51_30                       1.000000
X_52_27                       1.000000
X_53_4                        1.000000
X_54_7                        1.000000
X_55_8                        1.000000
X_56_34                       1.000000
X_57_48                       1.000000
X_58_12                       1.000000
X_59_28                       1.000000
X_60_15                       1.000000
X_61_41                       1.000000
X_62_48                       1.000000
X_63_34                       1.000000
X_64_14                       1.000000
X_65_37                       1.000000
X_66_20                       1.000000
X_67_10                       1.000000
X_68_19                       1.000000
X_69_28                       1.000000
X_70_39                       1.000000
X_71_23                       1.000000
X_72_50                       1.000000
X_73_2                        1.000000
X_74_44                       1.000000
X_75_32                       1.000000
X_76_11                       1.000000
X_77_6                        1.000000
X_78_1                        1.000000
X_79_12                       1.000000
X_80_32                       1.000000
X_81_25                       1.000000
X_82_19                       1.000000
X_83_8                        1.000000
X_84_4                        1.000000
X_85_22                       1.000000
X_86_44                       1.000000
X_87_9                        1.000000
X_88_1                        1.000000
X_89_50                       1.000000
X_90_16                       1.000000
X_91_3                        1.000000
X_92_25                       1.000000
X_93_36                       1.000000
X_94_16                       1.000000
X_95_13                       1.000000
X_96_29                       1.000000
X_97_36                       1.000000
X_98_49                       1.000000
X_99_33                       1.000000
X_100_29                      1.000000
All other variables in the range 1-5001 are 0.
